6 40 4 10
18 5 16 15 15 10 10 5 5 2 9 10 6 16 6 11 20 3 3 17 8 14 2 3 14 17 7 17 16 17 1 17 1 20 3 7 7 2 13 11 
6.14 0.25 2.39 5.55 5.09 6.32 0.83 6.88 7.36 0.44 7.87 2.59 6.89 6.3 3.73 5.75 2.38 3.65 3.89 3.37 7.74 5.6 6.02 1.98 2.16 4.32 0.51 3.94 4.36 6.63 6.02 2.58 7.6 0.55 7.44 5.45 5.54 1.71 1.26 0.67 
3.15 4.57 2.85 7.99 5.78 0.7 5.2 2.82 5.99 5.24 4.08 3.01 4.96 2.91 5.72 5.24 0.27 3.36 3.26 0.13 2.11 2.36 2.68 0.42 0.39 4.62 2.95 2.53 6.88 0.1 2.03 0.15 1.08 5.64 5.11 7.68 2.98 4.86 1.22 3.26 
6.5 7.64 7.02 6.62 7.37 7.47 0.93 7.53 6.44 7.31 0.48 5.13 4.09 3.9 3.54 0.69 0.03 5.67 1.84 5.04 1.03 7.02 7.86 0.59 6.91 4.58 4.83 5.85 5.2 0.63 6.23 3.27 7.16 7.43 7.53 1 7.65 2.61 2.1 3.19 
7.63 5.37 4.78 4.97 6.19 0.55 5.23 6.73 6.04 3.72 7.2 1.65 3.76 2.88 7.67 0.05 0.01 1.64 3.52 3.45 1.55 1.48 6.88 7.86 1.81 4.21 1.47 5.37 1.93 0.66 2.76 1.95 6.45 5.74 6.8 2.47 2.23 6.29 2.82 2.38 
4 4 4 4 4 4 4 4 4 4 4 4 4 4 4 4 4 4 4 4 4 4 4 4 4 4 4 4 4 4 4 4 4 4 4 4 4 4 4 4 
6.52 0.55 7.73 2.45 2.03 2.8 7.44 0.61 7.46 3.82 1.01 2.06 6.62 4.36 4.25 4.21 0.23 5.72 4.82 1.53 4.67 5.93 3.64 3.43 4.76 3.05 3.62 7.84 3.53 0.75 5.18 0.47 1.26 2.34 5.48 2.68 3.96 0.78 1 2.72 
1 1 1 1 1 1 1 1 1 1 1 1 1 1 1 1 1 1 1 1 1 1 1 1 1 1 1 1 1 1 1 1 1 1 1 1 1 1 1 1 
1 1 1 1 1 1 1 1 1 1 1 1 1 1 1 1 1 1 1 1 1 1 1 1 1 1 1 1 1 1 1 1 1 1 1 1 1 1 1 1 
1 1 1 1 1 1 1 1 1 1 1 1 1 1 1 1 1 1 1 1 1 1 1 1 1 1 1 1 1 1 1 1 1 1 1 1 1 1 1 1 
1 1 1 1 1 1 1 1 1 1 1 1 1 1 1 1 1 1 1 1 1 1 1 1 1 1 1 1 1 1 1 1 1 1 1 1 1 1 1 1 
1 1 1 1 1 1 1 1 1 1 1 1 1 1 1 1 1 1 1 1 1 1 1 1 1 1 1 1 1 1 1 1 1 1 1 1 1 1 1 1 
1 1 1 1 1 1 1 1 1 1 1 1 1 1 1 1 1 1 1 1 1 1 1 1 1 1 1 1 1 1 1 1 1 1 1 1 1 1 1 1 
0.01 0.01 0.01 0.01 0.01 0.01 0.01 0.01 0.01 0.01 0.01 0.01 0.01 0.01 0.01 0.01 0.01 0.01 0.01 0.01 0.01 0.01 0.01 0.01 0.01 0.01 0.01 0.01 0.01 0.01 0.01 0.01 0.01 0.01 0.01 0.01 0.01 0.01 0.01 0.01 
0.02 0.02 0.02 0.02 0.02 0.02 0.02 0.02 0.02 0.02 0.02 0.02 0.02 0.02 0.02 0.02 0.02 0.02 0.02 0.02 0.02 0.02 0.02 0.02 0.02 0.02 0.02 0.02 0.02 0.02 0.02 0.02 0.02 0.02 0.02 0.02 0.02 0.02 0.02 0.02 
0.03 0.03 0.03 0.03 0.03 0.03 0.03 0.03 0.03 0.03 0.03 0.03 0.03 0.03 0.03 0.03 0.03 0.03 0.03 0.03 0.03 0.03 0.03 0.03 0.03 0.03 0.03 0.03 0.03 0.03 0.03 0.03 0.03 0.03 0.03 0.03 0.03 0.03 0.03 0.03 
0.04 0.04 0.04 0.04 0.04 0.04 0.04 0.04 0.04 0.04 0.04 0.04 0.04 0.04 0.04 0.04 0.04 0.04 0.04 0.04 0.04 0.04 0.04 0.04 0.04 0.04 0.04 0.04 0.04 0.04 0.04 0.04 0.04 0.04 0.04 0.04 0.04 0.04 0.04 0.04 
0.05 0.05 0.05 0.05 0.05 0.05 0.05 0.05 0.05 0.05 0.05 0.05 0.05 0.05 0.05 0.05 0.05 0.05 0.05 0.05 0.05 0.05 0.05 0.05 0.05 0.05 0.05 0.05 0.05 0.05 0.05 0.05 0.05 0.05 0.05 0.05 0.05 0.05 0.05 0.05 
1 1 1 1 1 1 1 1 1 1 1 1 1 1 1 1 1 1 1 1 1 1 1 1 1 1 1 1 1 1 1 1 1 1 1 1 1 1 1 1 
